virial_stress_von_mises
6.700404e+01 5.152989e+01 5.892975e+01 5.926259e+01 1.541822e+02 1.288910e+02 1.317358e+02 3.572910e+02 1.521900e+02 3.086409e+02 5.164259e+01 1.954260e+01 2.775373e+01 3.140677e+01 1.990363e+02 1.262873e+02 1.329303e+02 4.106249e+02 1.600775e+02 3.912310e+02 5.003404e+01 1.693857e+01 2.688557e+01 7.949992e+00 2.071991e+02 1.304931e+02 1.257881e+02 3.498796e+02 8.952747e+01 3.706327e+02
1.251056e+02 1.044425e+02 1.213326e+02 9.747014e+01 2.910308e+02 2.213993e+02 2.331086e+02 6.897887e+02 3.221035e+02 5.827637e+02 6.334597e+01 3.396037e+01 6.897710e+01 5.263596e+01 3.467320e+02 2.145633e+02 2.350046e+02 7.965848e+02 3.021687e+02 7.617901e+02 7.875071e+01 1.121094e+01 2.464008e+01 2.035936e+01 3.799847e+02 2.624042e+02 1.927425e+02 6.692440e+02 1.450731e+02 7.081650e+02
2.337062e+02 1.590089e+02 2.007511e+02 1.940240e+02 3.815854e+02 2.487248e+02 2.723916e+02 9.652395e+02 4.958380e+02 7.888204e+02 9.914061e+01 8.729379e+01 1.707952e+02 7.814510e+01 4.122339e+02 2.368361e+02 2.765294e+02 1.124549e+03 4.225840e+02 1.076955e+03 9.951231e+01 6.753725e+01 3.048331e+01 3.214229e+01 4.971754e+02 3.581782e+02 1.777094e+02 9.288234e+02 1.606239e+02 9.831184e+02
3.817953e+02 2.156337e+02 3.063787e+02 3.325198e+02 4.237363e+02 1.960505e+02 2.313824e+02 1.160039e+03 6.574872e+02 9.006680e+02 1.725165e+02 1.669939e+02 2.909756e+02 1.215353e+02 3.876898e+02 1.823459e+02 2.397300e+02 1.372140e+03 5.261719e+02 1.309820e+03 1.207414e+02 1.397289e+02 9.129829e+01 4.366161e+01 5.523351e+02 3.857666e+02 8.255319e+01 1.109916e+03 1.466661e+02 1.173843e+03
5.186242e+02 2.738997e+02 4.320139e+02 4.500405e+02 4.585035e+02 8.072983e+01 1.278976e+02 1.264394e+03 7.918170e+02 9.046053e+02 2.382277e+02 2.472798e+02 3.851350e+02 1.771123e+02 3.138066e+02 9.493083e+01 1.316361e+02 1.534588e+03 6.297164e+02 1.446595e+03 1.353457e+02 2.006809e+02 1.618633e+02 6.512592e+01 5.553951e+02 3.289781e+02 9.963501e+01 1.209663e+03 1.656677e+02 1.270380e+03
6.090444e+02 3.321258e+02 5.598370e+02 5.034833e+02 5.374269e+02 1.126254e+02 1.277508e+02 1.283574e+03 8.872433e+02 8.007452e+02 2.703324e+02 3.063800e+02 4.262997e+02 2.310616e+02 2.937167e+02 1.695315e+02 5.611473e+01 1.627001e+03 7.577515e+02 1.489064e+03 1.387311e+02 2.309599e+02 2.180998e+02 1.024010e+02 5.276216e+02 1.999764e+02 2.609563e+02 1.241593e+03 2.829742e+02 1.274876e+03
6.534604e+02 3.879013e+02 6.718735e+02 4.884054e+02 6.545435e+02 2.549009e+02 2.707115e+02 1.237469e+03 9.385865e+02 6.038964e+02 2.703037e+02 3.337416e+02 4.156278e+02 2.742892e+02 3.633799e+02 3.075076e+02 1.892020e+02 1.681633e+03 9.294550e+02 1.455509e+03 1.533069e+02 2.262298e+02 2.466541e+02 1.475251e+02 4.999008e+02 7.089244e+01 3.804579e+02 1.231884e+03 4.670573e+02 1.200661e+03
6.823999e+02 4.393229e+02 7.596924e+02 4.391471e+02 7.705428e+02 3.444912e+02 3.791890e+02 1.159719e+03 9.494331e+02 3.554252e+02 2.658440e+02 3.337898e+02 3.805280e+02 3.065625e+02 4.227279e+02 3.963891e+02 2.891969e+02 1.738169e+03 1.146528e+03 1.380921e+03 2.112985e+02 1.994094e+02 2.480117e+02 1.874861e+02 5.112009e+02 1.574676e+02 4.204553e+02 1.210841e+03 6.786772e+02 1.071349e+03
7.301021e+02 4.859483e+02 8.275004e+02 4.095919e+02 8.765213e+02 3.561968e+02 4.108610e+02 1.093552e+03 9.323312e+02 2.514567e+02 2.933385e+02 3.221232e+02 3.582453e+02 3.336279e+02 4.113628e+02 4.117200e+02 3.162455e+02 1.826954e+03 1.393649e+03 1.313538e+03 3.022178e+02 1.739646e+02 2.345296e+02 2.117382e+02 5.910830e+02 2.471602e+02 3.776584e+02 1.200485e+03 8.884596e+02 9.194987e+02
8.064436e+02 5.287373e+02 8.889587e+02 4.292579e+02 9.995526e+02 2.985676e+02 3.684565e+02 1.080020e+03 9.070844e+02 5.152332e+02 3.582896e+02 3.153531e+02 3.678078e+02 3.597867e+02 3.456094e+02 3.648370e+02 2.711933e+02 1.956234e+03 1.646986e+03 1.303878e+03 3.950052e+02 1.650816e+02 2.220127e+02 2.162315e+02 7.431292e+02 2.614943e+02 2.767685e+02 1.207258e+03 1.071447e+03 7.870992e+02
8.951360e+02 5.690011e+02 9.605380e+02 4.780084e+02 1.162484e+03 2.098603e+02 2.864471e+02 1.134167e+03 8.949022e+02 8.631325e+02 4.353717e+02 3.198271e+02 4.009305e+02 3.825357e+02 3.206514e+02 2.949656e+02 1.798754e+02 2.112746e+03 1.882828e+03 1.380015e+03 4.666621e+02 1.640711e+02 2.182585e+02 2.040580e+02 9.515512e+02 2.111907e+02 1.657206e+02 1.225055e+03 1.208694e+03 7.189044e+02
